Route #1: 99 100 97 93 92 94 95 96
Route #2: 18 19 15 16 14 12 8 7
Route #3: 90 87 86 89 91
Route #4: 83 82 84 85 88 98
Route #5: 23 26 28 30 17 13
Route #6: 75 1 2 4 3 5
Route #7: 78 76 71 70 73 77
Route #8: 10 11 9 6
Route #9: 67 65 62 74 63
Route #10: 81 79 80 72 61 64 66
Route #11: 21 22 25 27 24 20
Route #12: 69 68 59 40 41
Route #13: 49 52 50 51 31 35 37 38 39
Route #14: 32 33 36 34 29
Route #15: 47 46 48 45 44 42 43
Route #16: 55 54 53 56 58 60 57
Cost 1220.990690